experiments/eusolverstring/3/TrainGenes/100010001000101000100100011111000011100101110001011100000000/144_.out
3 {f:ite(=(2,func27(Param0," ")),func18(Param0,3,func34(3)),ite(=(3,func27(Param0," ")),func4(Param0,3,"-",func34(3)),func8(Param0,3,func34(func34(2)))))}
0.0000520000
0.0000000000
0.7109020000
